c 
c U(n,d) graph
c graph gen seed     : 9411
c number of vertices : 60
c max number of edges: 1770
c Euclidean distance : 0.200000
c data structure     : sparse
c
c           Graph Stats
c number of vertices  : 60
c nonisolated vertices: 59
c number of edges     : 194
c edge density        : 0.109605
c max degree          : 12
c avg degree          : 6.47
c min degree          : 0
p col 60 194
e 1 59
e 1 52
e 1 47
e 1 44
e 1 39
e 1 27
e 1 17
e 1 2
e 2 59
e 2 54
e 2 52
e 2 27
e 2 21
e 2 17
e 3 53
e 3 45
e 3 38
e 3 25
e 3 24
e 3 10
e 4 50
e 4 49
e 4 37
e 4 33
e 4 30
e 4 9
e 4 5
e 5 49
e 5 33
e 5 30
e 5 9
e 6 54
e 6 42
e 6 32
e 7 51
e 7 44
e 7 41
e 7 23
e 7 19
e 7 18
e 7 13
e 7 8
e 8 51
e 8 44
e 8 41
e 8 19
e 8 18
e 8 13
e 9 60
e 9 50
e 9 49
e 9 37
e 9 30
e 9 29
e 10 53
e 10 45
e 10 38
e 10 25
e 11 55
e 11 48
e 11 35
e 11 28
e 11 26
e 11 20
e 11 16
e 11 12
e 12 55
e 12 48
e 12 35
e 12 28
e 12 26
e 12 16
e 13 51
e 13 46
e 13 41
e 13 23
e 13 19
e 13 18
e 14 56
e 14 55
e 14 31
e 14 29
e 14 28
e 14 22
e 14 20
e 14 16
e 15 46
e 16 57
e 16 56
e 16 55
e 16 48
e 16 35
e 16 28
e 16 26
e 16 22
e 16 20
e 17 59
e 17 54
e 17 52
e 17 27
e 17 21
e 18 59
e 18 51
e 18 44
e 18 41
e 18 27
e 18 23
e 18 19
e 19 59
e 19 51
e 19 44
e 19 41
e 19 27
e 19 23
e 20 56
e 20 55
e 20 48
e 20 28
e 20 26
e 20 22
e 21 59
e 21 52
e 21 27
e 22 56
e 22 55
e 22 48
e 22 34
e 22 31
e 22 28
e 23 51
e 23 46
e 23 41
e 24 58
e 24 53
e 24 45
e 24 40
e 24 33
e 24 25
e 25 58
e 25 53
e 25 45
e 25 40
e 25 38
e 25 33
e 26 57
e 26 55
e 26 35
e 26 28
e 27 59
e 27 52
e 27 47
e 27 44
e 28 57
e 28 56
e 28 55
e 28 48
e 28 35
e 29 60
e 29 56
e 29 37
e 29 36
e 30 49
e 31 54
e 31 42
e 31 34
e 32 54
e 32 42
e 33 58
e 33 45
e 33 40
e 35 55
e 35 48
e 36 60
e 36 57
e 37 60
e 37 56
e 37 50
e 38 53
e 38 45
e 39 47
e 40 58
e 41 51
e 41 46
e 42 54
e 44 59
e 44 47
e 45 53
e 46 51
e 47 52
e 48 55
e 52 59
e 52 54
e 55 57
e 57 60
